\ Model IP_mmnl
\ LP format - for model browsing. Use MPS format to capture full model detail.
Maximize
  z[0]
Subject To
 x_1st_constraint_0_0: x[0,0] - 6.237400770354274 y[0] <= 0
 x_2nd_constraint_0_0: z[0] + x[0,0] - 6.237400770354274 y[0] >= -1
 x_3rd_constraint_0_0: z[0] + x[0,0] + 6.237400770354274 y[0]
   <= 11.47480154070855
 x_1st_constraint_1_0: x[1,0] - 6.237400770354274 y[1] <= 0
 x_2nd_constraint_1_0: z[0] + x[1,0] - 6.237400770354274 y[1]
   >= -1.247972617790007
 x_3rd_constraint_1_0: z[0] + x[1,0] + 6.237400770354274 y[1]
   <= 11.22682892291854
 x_1st_constraint_2_0: x[2,0] - 6.237400770354274 y[2] <= 0
 x_2nd_constraint_2_0: z[0] + x[2,0] - 6.237400770354274 y[2]
   >= -1.562249563894835
 x_3rd_constraint_2_0: z[0] + x[2,0] + 6.237400770354274 y[2]
   <= 10.91255197681371
 x_1st_constraint_3_0: x[3,0] - 6.237400770354274 y[3] <= 0
 x_2nd_constraint_3_0: z[0] + x[3,0] - 6.237400770354274 y[3]
   >= -1.632550076244409
 x_3rd_constraint_3_0: z[0] + x[3,0] + 6.237400770354274 y[3]
   <= 10.84225146446414
 x_1st_constraint_4_0: x[4,0] - 6.237400770354274 y[4] <= 0
 x_2nd_constraint_4_0: z[0] + x[4,0] - 6.237400770354274 y[4]
   >= -1.913570213204028
 x_3rd_constraint_4_0: z[0] + x[4,0] + 6.237400770354274 y[4]
   <= 10.56123132750452
 x_1st_constraint_5_0: x[5,0] - 6.237400770354274 y[5] <= 0
 x_2nd_constraint_5_0: z[0] + x[5,0] - 6.237400770354274 y[5]
   >= -2.088028661754289
 x_3rd_constraint_5_0: z[0] + x[5,0] + 6.237400770354274 y[5]
   <= 10.38677287895426
 x_1st_constraint_6_0: x[6,0] - 6.237400770354274 y[6] <= 0
 x_2nd_constraint_6_0: z[0] + x[6,0] - 6.237400770354274 y[6]
   >= -2.227007683206388
 x_3rd_constraint_6_0: z[0] + x[6,0] + 6.237400770354274 y[6]
   <= 10.24779385750216
 x_1st_constraint_7_0: x[7,0] - 6.237400770354274 y[7] <= 0
 x_2nd_constraint_7_0: z[0] + x[7,0] - 6.237400770354274 y[7]
   >= -2.264993905829884
 x_3rd_constraint_7_0: z[0] + x[7,0] + 6.237400770354274 y[7]
   <= 10.20980763487866
 x_1st_constraint_8_0: x[8,0] - 6.237400770354274 y[8] <= 0
 x_2nd_constraint_8_0: z[0] + x[8,0] - 6.237400770354274 y[8]
   >= -2.305353699271609
 x_3rd_constraint_8_0: z[0] + x[8,0] + 6.237400770354274 y[8]
   <= 10.16944784143694
 x_1st_constraint_9_0: x[9,0] - 6.237400770354274 y[9] <= 0
 x_2nd_constraint_9_0: z[0] + x[9,0] - 6.237400770354274 y[9]
   >= -2.323501110385978
 x_3rd_constraint_9_0: z[0] + x[9,0] + 6.237400770354274 y[9]
   <= 10.15130043032257
 x_1st_constraint_10_0: x[10,0] - 6.237400770354274 y[10] <= 0
 x_2nd_constraint_10_0: z[0] + x[10,0] - 6.237400770354274 y[10]
   >= -2.38521378775263
 x_3rd_constraint_10_0: z[0] + x[10,0] + 6.237400770354274 y[10]
   <= 10.08958775295592
 x_1st_constraint_11_0: x[11,0] - 6.237400770354274 y[11] <= 0
 x_2nd_constraint_11_0: z[0] + x[11,0] - 6.237400770354274 y[11]
   >= -2.758191093489769
 x_3rd_constraint_11_0: z[0] + x[11,0] + 6.237400770354274 y[11]
   <= 9.716610447218779
 x_1st_constraint_12_0: x[12,0] - 6.237400770354274 y[12] <= 0
 x_2nd_constraint_12_0: z[0] + x[12,0] - 6.237400770354274 y[12]
   >= -2.959754289418871
 x_3rd_constraint_12_0: z[0] + x[12,0] + 6.237400770354274 y[12]
   <= 9.515047251289676
 x_1st_constraint_13_0: x[13,0] - 6.237400770354274 y[13] <= 0
 x_2nd_constraint_13_0: z[0] + x[13,0] - 6.237400770354274 y[13]
   >= -3.078660241491313
 x_3rd_constraint_13_0: z[0] + x[13,0] + 6.237400770354274 y[13]
   <= 9.396141299217234
 x_1st_constraint_14_0: x[14,0] - 6.237400770354274 y[14] <= 0
 x_2nd_constraint_14_0: z[0] + x[14,0] - 6.237400770354274 y[14]
   >= -3.208388317309081
 x_3rd_constraint_14_0: z[0] + x[14,0] + 6.237400770354274 y[14]
   <= 9.266413223399466
 x_1st_constraint_15_0: x[15,0] - 6.237400770354274 y[15] <= 0
 x_2nd_constraint_15_0: z[0] + x[15,0] - 6.237400770354274 y[15]
   >= -3.267789985542267
 x_3rd_constraint_15_0: z[0] + x[15,0] + 6.237400770354274 y[15]
   <= 9.207011555166281
 x_1st_constraint_16_0: x[16,0] - 6.237400770354274 y[16] <= 0
 x_2nd_constraint_16_0: z[0] + x[16,0] - 6.237400770354274 y[16]
   >= -3.314183265783416
 x_3rd_constraint_16_0: z[0] + x[16,0] + 6.237400770354274 y[16]
   <= 9.160618274925131
 x_1st_constraint_17_0: x[17,0] - 6.237400770354274 y[17] <= 0
 x_2nd_constraint_17_0: z[0] + x[17,0] - 6.237400770354274 y[17]
   >= -3.336391322936256
 x_3rd_constraint_17_0: z[0] + x[17,0] + 6.237400770354274 y[17]
   <= 9.138410217772291
 x_1st_constraint_18_0: x[18,0] - 6.237400770354274 y[18] <= 0
 x_2nd_constraint_18_0: z[0] + x[18,0] - 6.237400770354274 y[18]
   >= -3.381860727013991
 x_3rd_constraint_18_0: z[0] + x[18,0] + 6.237400770354274 y[18]
   <= 9.092940813694558
 x_1st_constraint_19_0: x[19,0] - 6.237400770354274 y[19] <= 0
 x_2nd_constraint_19_0: z[0] + x[19,0] - 6.237400770354274 y[19]
   >= -3.390130942415238
 x_3rd_constraint_19_0: z[0] + x[19,0] + 6.237400770354274 y[19]
   <= 9.084670598293309
 x_1st_constraint_20_0: x[20,0] - 6.237400770354274 y[20] <= 0
 x_2nd_constraint_20_0: z[0] + x[20,0] - 6.237400770354274 y[20]
   >= -3.412895559554991
 x_3rd_constraint_20_0: z[0] + x[20,0] + 6.237400770354274 y[20]
   <= 9.061905981153556
 x_1st_constraint_21_0: x[21,0] - 6.237400770354274 y[21] <= 0
 x_2nd_constraint_21_0: z[0] + x[21,0] - 6.237400770354274 y[21]
   >= -3.42645131131407
 x_3rd_constraint_21_0: z[0] + x[21,0] + 6.237400770354274 y[21]
   <= 9.048350229394478
 x_1st_constraint_22_0: x[22,0] - 6.237400770354274 y[22] <= 0
 x_2nd_constraint_22_0: z[0] + x[22,0] - 6.237400770354274 y[22]
   >= -3.466425426431977
 x_3rd_constraint_22_0: z[0] + x[22,0] + 6.237400770354274 y[22]
   <= 9.008376114276571
 x_1st_constraint_23_0: x[23,0] - 6.237400770354274 y[23] <= 0
 x_2nd_constraint_23_0: z[0] + x[23,0] - 6.237400770354274 y[23]
   >= -3.490670080274021
 x_3rd_constraint_23_0: z[0] + x[23,0] + 6.237400770354274 y[23]
   <= 8.984131460434526
 x_1st_constraint_24_0: x[24,0] - 6.237400770354274 y[24] <= 0
 x_2nd_constraint_24_0: z[0] + x[24,0] - 6.237400770354274 y[24]
   >= -3.491279204853167
 x_3rd_constraint_24_0: z[0] + x[24,0] + 6.237400770354274 y[24]
   <= 8.98352233585538
 x_1st_constraint_25_0: x[25,0] - 6.237400770354274 y[25] <= 0
 x_2nd_constraint_25_0: z[0] + x[25,0] - 6.237400770354274 y[25]
   >= -3.523056306171433
 x_3rd_constraint_25_0: z[0] + x[25,0] + 6.237400770354274 y[25]
   <= 8.951745234537114
 x_1st_constraint_26_0: x[26,0] - 6.237400770354274 y[26] <= 0
 x_2nd_constraint_26_0: z[0] + x[26,0] - 6.237400770354274 y[26]
   >= -3.637062882377087
 x_3rd_constraint_26_0: z[0] + x[26,0] + 6.237400770354274 y[26]
   <= 8.83773865833146
 x_1st_constraint_27_0: x[27,0] - 6.237400770354274 y[27] <= 0
 x_2nd_constraint_27_0: z[0] + x[27,0] - 6.237400770354274 y[27]
   >= -3.697385805104569
 x_3rd_constraint_27_0: z[0] + x[27,0] + 6.237400770354274 y[27]
   <= 8.777415735603977
 x_1st_constraint_28_0: x[28,0] - 6.237400770354274 y[28] <= 0
 x_2nd_constraint_28_0: z[0] + x[28,0] - 6.237400770354274 y[28]
   >= -3.758920449468485
 x_3rd_constraint_28_0: z[0] + x[28,0] + 6.237400770354274 y[28]
   <= 8.715881091240062
 x_1st_constraint_29_0: x[29,0] - 6.237400770354274 y[29] <= 0
 x_2nd_constraint_29_0: z[0] + x[29,0] - 6.237400770354274 y[29]
   >= -3.846313728071713
 x_3rd_constraint_29_0: z[0] + x[29,0] + 6.237400770354274 y[29]
   <= 8.628487812636834
 x_1st_constraint_30_0: x[30,0] - 6.237400770354274 y[30] <= 0
 x_2nd_constraint_30_0: z[0] + x[30,0] - 6.237400770354274 y[30]
   >= -3.913080663609334
 x_3rd_constraint_30_0: z[0] + x[30,0] + 6.237400770354274 y[30]
   <= 8.561720877099212
 x_1st_constraint_31_0: x[31,0] - 6.237400770354274 y[31] <= 0
 x_2nd_constraint_31_0: z[0] + x[31,0] - 6.237400770354274 y[31]
   >= -3.942113849100872
 x_3rd_constraint_31_0: z[0] + x[31,0] + 6.237400770354274 y[31]
   <= 8.532687691607675
 x_1st_constraint_32_0: x[32,0] - 6.237400770354274 y[32] <= 0
 x_2nd_constraint_32_0: z[0] + x[32,0] - 6.237400770354274 y[32]
   >= -4.041833154600713
 x_3rd_constraint_32_0: z[0] + x[32,0] + 6.237400770354274 y[32]
   <= 8.432968386107834
 x_1st_constraint_33_0: x[33,0] - 6.237400770354274 y[33] <= 0
 x_2nd_constraint_33_0: z[0] + x[33,0] - 6.237400770354274 y[33]
   >= -4.057440057273174
 x_3rd_constraint_33_0: z[0] + x[33,0] + 6.237400770354274 y[33]
   <= 8.417361483435373
 x_1st_constraint_34_0: x[34,0] - 6.237400770354274 y[34] <= 0
 x_2nd_constraint_34_0: z[0] + x[34,0] - 6.237400770354274 y[34]
   >= -4.08467857056351
 x_3rd_constraint_34_0: z[0] + x[34,0] + 6.237400770354274 y[34]
   <= 8.390122970145038
 x_1st_constraint_35_0: x[35,0] - 6.237400770354274 y[35] <= 0
 x_2nd_constraint_35_0: z[0] + x[35,0] - 6.237400770354274 y[35]
   >= -4.091612500048848
 x_3rd_constraint_35_0: z[0] + x[35,0] + 6.237400770354274 y[35]
   <= 8.383189040659699
 x_1st_constraint_36_0: x[36,0] - 6.237400770354274 y[36] <= 0
 x_2nd_constraint_36_0: z[0] + x[36,0] - 6.237400770354274 y[36]
   >= -4.093201302052337
 x_3rd_constraint_36_0: z[0] + x[36,0] + 6.237400770354274 y[36]
   <= 8.38160023865621
 x_1st_constraint_37_0: x[37,0] - 6.237400770354274 y[37] <= 0
 x_2nd_constraint_37_0: z[0] + x[37,0] - 6.237400770354274 y[37]
   >= -4.230906683671377
 x_3rd_constraint_37_0: z[0] + x[37,0] + 6.237400770354274 y[37]
   <= 8.243894857037169
 x_1st_constraint_38_0: x[38,0] - 6.237400770354274 y[38] <= 0
 x_2nd_constraint_38_0: z[0] + x[38,0] - 6.237400770354274 y[38]
   >= -4.246016677163031
 x_3rd_constraint_38_0: z[0] + x[38,0] + 6.237400770354274 y[38]
   <= 8.228784863545517
 x_1st_constraint_39_0: x[39,0] - 6.237400770354274 y[39] <= 0
 x_2nd_constraint_39_0: z[0] + x[39,0] - 6.237400770354274 y[39]
   >= -4.282286751406859
 x_3rd_constraint_39_0: z[0] + x[39,0] + 6.237400770354274 y[39]
   <= 8.192514789301688
 x_1st_constraint_40_0: x[40,0] - 6.237400770354274 y[40] <= 0
 x_2nd_constraint_40_0: z[0] + x[40,0] - 6.237400770354274 y[40]
   >= -4.285338566593865
 x_3rd_constraint_40_0: z[0] + x[40,0] + 6.237400770354274 y[40]
   <= 8.189462974114683
 x_1st_constraint_41_0: x[41,0] - 6.237400770354274 y[41] <= 0
 x_2nd_constraint_41_0: z[0] + x[41,0] - 6.237400770354274 y[41]
   >= -4.38174233995524
 x_3rd_constraint_41_0: z[0] + x[41,0] + 6.237400770354274 y[41]
   <= 8.093059200753308
 x_1st_constraint_42_0: x[42,0] - 6.237400770354274 y[42] <= 0
 x_2nd_constraint_42_0: z[0] + x[42,0] - 6.237400770354274 y[42]
   >= -4.384833476178261
 x_3rd_constraint_42_0: z[0] + x[42,0] + 6.237400770354274 y[42]
   <= 8.089968064530286
 x_1st_constraint_43_0: x[43,0] - 6.237400770354274 y[43] <= 0
 x_2nd_constraint_43_0: z[0] + x[43,0] - 6.237400770354274 y[43]
   >= -4.389433368388242
 x_3rd_constraint_43_0: z[0] + x[43,0] + 6.237400770354274 y[43]
   <= 8.085368172320305
 x_1st_constraint_44_0: x[44,0] - 6.237400770354274 y[44] <= 0
 x_2nd_constraint_44_0: z[0] + x[44,0] - 6.237400770354274 y[44]
   >= -4.617395055197568
 x_3rd_constraint_44_0: z[0] + x[44,0] + 6.237400770354274 y[44]
   <= 7.85740648551098
 x_1st_constraint_45_0: x[45,0] - 6.237400770354274 y[45] <= 0
 x_2nd_constraint_45_0: z[0] + x[45,0] - 6.237400770354274 y[45]
   >= -4.624785193231594
 x_3rd_constraint_45_0: z[0] + x[45,0] + 6.237400770354274 y[45]
   <= 7.850016347476954
 x_1st_constraint_46_0: x[46,0] - 6.237400770354274 y[46] <= 0
 x_2nd_constraint_46_0: z[0] + x[46,0] - 6.237400770354274 y[46]
   >= -4.682079764538822
 x_3rd_constraint_46_0: z[0] + x[46,0] + 6.237400770354274 y[46]
   <= 7.792721776169725
 x_1st_constraint_47_0: x[47,0] - 6.237400770354274 y[47] <= 0
 x_2nd_constraint_47_0: z[0] + x[47,0] - 6.237400770354274 y[47]
   >= -4.772051825542466
 x_3rd_constraint_47_0: z[0] + x[47,0] + 6.237400770354274 y[47]
   <= 7.702749715166082
 x_1st_constraint_48_0: x[48,0] - 6.237400770354274 y[48] <= 0
 x_2nd_constraint_48_0: z[0] + x[48,0] - 6.237400770354274 y[48]
   >= -4.800062306268443
 x_3rd_constraint_48_0: z[0] + x[48,0] + 6.237400770354274 y[48]
   <= 7.674739234440104
 x_1st_constraint_49_0: x[49,0] - 6.237400770354274 y[49] <= 0
 x_2nd_constraint_49_0: z[0] + x[49,0] - 6.237400770354274 y[49]
   >= -4.808715764652337
 x_3rd_constraint_49_0: z[0] + x[49,0] + 6.237400770354274 y[49]
   <= 7.66608577605621
 x_1st_constraint_50_0: x[50,0] - 6.237400770354274 y[50] <= 0
 x_2nd_constraint_50_0: z[0] + x[50,0] - 6.237400770354274 y[50]
   >= -4.815049986246668
 x_3rd_constraint_50_0: z[0] + x[50,0] + 6.237400770354274 y[50]
   <= 7.659751554461879
 x_1st_constraint_51_0: x[51,0] - 6.237400770354274 y[51] <= 0
 x_2nd_constraint_51_0: z[0] + x[51,0] - 6.237400770354274 y[51]
   >= -4.84483847209323
 x_3rd_constraint_51_0: z[0] + x[51,0] + 6.237400770354274 y[51]
   <= 7.629963068615317
 x_1st_constraint_52_0: x[52,0] - 6.237400770354274 y[52] <= 0
 x_2nd_constraint_52_0: z[0] + x[52,0] - 6.237400770354274 y[52]
   >= -4.994908351797237
 x_3rd_constraint_52_0: z[0] + x[52,0] + 6.237400770354274 y[52]
   <= 7.47989318891131
 x_1st_constraint_53_0: x[53,0] - 6.237400770354274 y[53] <= 0
 x_2nd_constraint_53_0: z[0] + x[53,0] - 6.237400770354274 y[53]
   >= -5.004220005916922
 x_3rd_constraint_53_0: z[0] + x[53,0] + 6.237400770354274 y[53]
   <= 7.470581534791625
 x_1st_constraint_54_0: x[54,0] - 6.237400770354274 y[54] <= 0
 x_2nd_constraint_54_0: z[0] + x[54,0] - 6.237400770354274 y[54]
   >= -5.018478086768625
 x_3rd_constraint_54_0: z[0] + x[54,0] + 6.237400770354274 y[54]
   <= 7.456323453939922
 x_1st_constraint_55_0: x[55,0] - 6.237400770354274 y[55] <= 0
 x_2nd_constraint_55_0: z[0] + x[55,0] - 6.237400770354274 y[55]
   >= -5.077565243385323
 x_3rd_constraint_55_0: z[0] + x[55,0] + 6.237400770354274 y[55]
   <= 7.397236297323224
 x_1st_constraint_56_0: x[56,0] - 6.237400770354274 y[56] <= 0
 x_2nd_constraint_56_0: z[0] + x[56,0] - 6.237400770354274 y[56]
   >= -5.081490720047983
 x_3rd_constraint_56_0: z[0] + x[56,0] + 6.237400770354274 y[56]
   <= 7.393310820660565
 x_1st_constraint_57_0: x[57,0] - 6.237400770354274 y[57] <= 0
 x_2nd_constraint_57_0: z[0] + x[57,0] - 6.237400770354274 y[57]
   >= -5.095640463923615
 x_3rd_constraint_57_0: z[0] + x[57,0] + 6.237400770354274 y[57]
   <= 7.379161076784932
 x_1st_constraint_58_0: x[58,0] - 6.237400770354274 y[58] <= 0
 x_2nd_constraint_58_0: z[0] + x[58,0] - 6.237400770354274 y[58]
   >= -5.116142724721477
 x_3rd_constraint_58_0: z[0] + x[58,0] + 6.237400770354274 y[58]
   <= 7.358658815987071
 x_1st_constraint_59_0: x[59,0] - 6.237400770354274 y[59] <= 0
 x_2nd_constraint_59_0: z[0] + x[59,0] - 6.237400770354274 y[59]
   >= -5.133909600484193
 x_3rd_constraint_59_0: z[0] + x[59,0] + 6.237400770354274 y[59]
   <= 7.340891940224354
 x_1st_constraint_60_0: x[60,0] - 6.237400770354274 y[60] <= 0
 x_2nd_constraint_60_0: z[0] + x[60,0] - 6.237400770354274 y[60]
   >= -5.161062545668963
 x_3rd_constraint_60_0: z[0] + x[60,0] + 6.237400770354274 y[60]
   <= 7.313738995039585
 x_1st_constraint_61_0: x[61,0] - 6.237400770354274 y[61] <= 0
 x_2nd_constraint_61_0: z[0] + x[61,0] - 6.237400770354274 y[61]
   >= -5.187613720587885
 x_3rd_constraint_61_0: z[0] + x[61,0] + 6.237400770354274 y[61]
   <= 7.287187820120662
 x_1st_constraint_62_0: x[62,0] - 6.237400770354274 y[62] <= 0
 x_2nd_constraint_62_0: z[0] + x[62,0] - 6.237400770354274 y[62]
   >= -5.224919101159676
 x_3rd_constraint_62_0: z[0] + x[62,0] + 6.237400770354274 y[62]
   <= 7.249882439548871
 x_1st_constraint_63_0: x[63,0] - 6.237400770354274 y[63] <= 0
 x_2nd_constraint_63_0: z[0] + x[63,0] - 6.237400770354274 y[63]
   >= -5.259916976924284
 x_3rd_constraint_63_0: z[0] + x[63,0] + 6.237400770354274 y[63]
   <= 7.214884563784263
 x_1st_constraint_64_0: x[64,0] - 6.237400770354274 y[64] <= 0
 x_2nd_constraint_64_0: z[0] + x[64,0] - 6.237400770354274 y[64]
   >= -5.35791027504357
 x_3rd_constraint_64_0: z[0] + x[64,0] + 6.237400770354274 y[64]
   <= 7.116891265664978
 x_1st_constraint_65_0: x[65,0] - 6.237400770354274 y[65] <= 0
 x_2nd_constraint_65_0: z[0] + x[65,0] - 6.237400770354274 y[65]
   >= -5.371827212052762
 x_3rd_constraint_65_0: z[0] + x[65,0] + 6.237400770354274 y[65]
   <= 7.102974328655786
 x_1st_constraint_66_0: x[66,0] - 6.237400770354274 y[66] <= 0
 x_2nd_constraint_66_0: z[0] + x[66,0] - 6.237400770354274 y[66]
   >= -5.387039170205214
 x_3rd_constraint_66_0: z[0] + x[66,0] + 6.237400770354274 y[66]
   <= 7.087762370503333
 x_1st_constraint_67_0: x[67,0] - 6.237400770354274 y[67] <= 0
 x_2nd_constraint_67_0: z[0] + x[67,0] - 6.237400770354274 y[67]
   >= -5.393334995701204
 x_3rd_constraint_67_0: z[0] + x[67,0] + 6.237400770354274 y[67]
   <= 7.081466545007343
 x_1st_constraint_68_0: x[68,0] - 6.237400770354274 y[68] <= 0
 x_2nd_constraint_68_0: z[0] + x[68,0] - 6.237400770354274 y[68]
   >= -5.446156053034256
 x_3rd_constraint_68_0: z[0] + x[68,0] + 6.237400770354274 y[68]
   <= 7.028645487674291
 x_1st_constraint_69_0: x[69,0] - 6.237400770354274 y[69] <= 0
 x_2nd_constraint_69_0: z[0] + x[69,0] - 6.237400770354274 y[69]
   >= -5.466448458820785
 x_3rd_constraint_69_0: z[0] + x[69,0] + 6.237400770354274 y[69]
   <= 7.008353081887763
 x_1st_constraint_70_0: x[70,0] - 6.237400770354274 y[70] <= 0
 x_2nd_constraint_70_0: z[0] + x[70,0] - 6.237400770354274 y[70]
   >= -5.473594818277246
 x_3rd_constraint_70_0: z[0] + x[70,0] + 6.237400770354274 y[70]
   <= 7.001206722431301
 x_1st_constraint_71_0: x[71,0] - 6.237400770354274 y[71] <= 0
 x_2nd_constraint_71_0: z[0] + x[71,0] - 6.237400770354274 y[71]
   >= -5.564411686832563
 x_3rd_constraint_71_0: z[0] + x[71,0] + 6.237400770354274 y[71]
   <= 6.910389853875984
 x_1st_constraint_72_0: x[72,0] - 6.237400770354274 y[72] <= 0
 x_2nd_constraint_72_0: z[0] + x[72,0] - 6.237400770354274 y[72]
   >= -5.656114572878908
 x_3rd_constraint_72_0: z[0] + x[72,0] + 6.237400770354274 y[72]
   <= 6.81868696782964
 x_1st_constraint_73_0: x[73,0] - 6.237400770354274 y[73] <= 0
 x_2nd_constraint_73_0: z[0] + x[73,0] - 6.237400770354274 y[73]
   >= -5.674938512625111
 x_3rd_constraint_73_0: z[0] + x[73,0] + 6.237400770354274 y[73]
   <= 6.799863028083436
 x_1st_constraint_74_0: x[74,0] - 6.237400770354274 y[74] <= 0
 x_2nd_constraint_74_0: z[0] + x[74,0] - 6.237400770354274 y[74]
   >= -5.680026593688723
 x_3rd_constraint_74_0: z[0] + x[74,0] + 6.237400770354274 y[74]
   <= 6.794774947019825
 x_1st_constraint_75_0: x[75,0] - 6.237400770354274 y[75] <= 0
 x_2nd_constraint_75_0: z[0] + x[75,0] - 6.237400770354274 y[75]
   >= -5.737024054942949
 x_3rd_constraint_75_0: z[0] + x[75,0] + 6.237400770354274 y[75]
   <= 6.737777485765599
 x_1st_constraint_76_0: x[76,0] - 6.237400770354274 y[76] <= 0
 x_2nd_constraint_76_0: z[0] + x[76,0] - 6.237400770354274 y[76]
   >= -5.746438164530518
 x_3rd_constraint_76_0: z[0] + x[76,0] + 6.237400770354274 y[76]
   <= 6.72836337617803
 x_1st_constraint_77_0: x[77,0] - 6.237400770354274 y[77] <= 0
 x_2nd_constraint_77_0: z[0] + x[77,0] - 6.237400770354274 y[77]
   >= -5.755682303269089
 x_3rd_constraint_77_0: z[0] + x[77,0] + 6.237400770354274 y[77]
   <= 6.719119237439458
 x_1st_constraint_78_0: x[78,0] - 6.237400770354274 y[78] <= 0
 x_2nd_constraint_78_0: z[0] + x[78,0] - 6.237400770354274 y[78]
   >= -5.78310601068562
 x_3rd_constraint_78_0: z[0] + x[78,0] + 6.237400770354274 y[78]
   <= 6.691695530022928
 x_1st_constraint_79_0: x[79,0] - 6.237400770354274 y[79] <= 0
 x_2nd_constraint_79_0: z[0] + x[79,0] - 6.237400770354274 y[79]
   >= -5.796624720595388
 x_3rd_constraint_79_0: z[0] + x[79,0] + 6.237400770354274 y[79]
   <= 6.678176820113159
 x_1st_constraint_80_0: x[80,0] - 6.237400770354274 y[80] <= 0
 x_2nd_constraint_80_0: z[0] + x[80,0] - 6.237400770354274 y[80]
   >= -5.808212101294981
 x_3rd_constraint_80_0: z[0] + x[80,0] + 6.237400770354274 y[80]
   <= 6.666589439413567
 x_1st_constraint_81_0: x[81,0] - 6.237400770354274 y[81] <= 0
 x_2nd_constraint_81_0: z[0] + x[81,0] - 6.237400770354274 y[81]
   >= -5.834280265895538
 x_3rd_constraint_81_0: z[0] + x[81,0] + 6.237400770354274 y[81]
   <= 6.640521274813009
 x_1st_constraint_82_0: x[82,0] - 6.237400770354274 y[82] <= 0
 x_2nd_constraint_82_0: z[0] + x[82,0] - 6.237400770354274 y[82]
   >= -5.842191803706349
 x_3rd_constraint_82_0: z[0] + x[82,0] + 6.237400770354274 y[82]
   <= 6.632609737002198
 x_1st_constraint_83_0: x[83,0] - 6.237400770354274 y[83] <= 0
 x_2nd_constraint_83_0: z[0] + x[83,0] - 6.237400770354274 y[83]
   >= -5.864976021654828
 x_3rd_constraint_83_0: z[0] + x[83,0] + 6.237400770354274 y[83]
   <= 6.60982551905372
 x_1st_constraint_84_0: x[84,0] - 6.237400770354274 y[84] <= 0
 x_2nd_constraint_84_0: z[0] + x[84,0] - 6.237400770354274 y[84]
   >= -5.901120510018584
 x_3rd_constraint_84_0: z[0] + x[84,0] + 6.237400770354274 y[84]
   <= 6.573681030689964
 x_1st_constraint_85_0: x[85,0] - 6.237400770354274 y[85] <= 0
 x_2nd_constraint_85_0: z[0] + x[85,0] - 6.237400770354274 y[85]
   >= -5.942121843509542
 x_3rd_constraint_85_0: z[0] + x[85,0] + 6.237400770354274 y[85]
   <= 6.532679697199005
 x_1st_constraint_86_0: x[86,0] - 6.237400770354274 y[86] <= 0
 x_2nd_constraint_86_0: z[0] + x[86,0] - 6.237400770354274 y[86]
   >= -5.949014106130539
 x_3rd_constraint_86_0: z[0] + x[86,0] + 6.237400770354274 y[86]
   <= 6.525787434578008
 x_1st_constraint_87_0: x[87,0] - 6.237400770354274 y[87] <= 0
 x_2nd_constraint_87_0: z[0] + x[87,0] - 6.237400770354274 y[87]
   >= -5.957528240623721
 x_3rd_constraint_87_0: z[0] + x[87,0] + 6.237400770354274 y[87]
   <= 6.517273300084827
 x_1st_constraint_88_0: x[88,0] - 6.237400770354274 y[88] <= 0
 x_2nd_constraint_88_0: z[0] + x[88,0] - 6.237400770354274 y[88]
   >= -5.975024116267888
 x_3rd_constraint_88_0: z[0] + x[88,0] + 6.237400770354274 y[88]
   <= 6.499777424440659
 x_1st_constraint_89_0: x[89,0] - 6.237400770354274 y[89] <= 0
 x_2nd_constraint_89_0: z[0] + x[89,0] - 6.237400770354274 y[89]
   >= -5.995552410437782
 x_3rd_constraint_89_0: z[0] + x[89,0] + 6.237400770354274 y[89]
   <= 6.479249130270766
 x_1st_constraint_90_0: x[90,0] - 6.237400770354274 y[90] <= 0
 x_2nd_constraint_90_0: z[0] + x[90,0] - 6.237400770354274 y[90]
   >= -6.023800874411355
 x_3rd_constraint_90_0: z[0] + x[90,0] + 6.237400770354274 y[90]
   <= 6.451000666297192
 x_1st_constraint_91_0: x[91,0] - 6.237400770354274 y[91] <= 0
 x_2nd_constraint_91_0: z[0] + x[91,0] - 6.237400770354274 y[91]
   >= -6.068593466977132
 x_3rd_constraint_91_0: z[0] + x[91,0] + 6.237400770354274 y[91]
   <= 6.406208073731416
 x_1st_constraint_92_0: x[92,0] - 6.237400770354274 y[92] <= 0
 x_2nd_constraint_92_0: z[0] + x[92,0] - 6.237400770354274 y[92]
   >= -6.083466894070308
 x_3rd_constraint_92_0: z[0] + x[92,0] + 6.237400770354274 y[92]
   <= 6.391334646638239
 x_1st_constraint_93_0: x[93,0] - 6.237400770354274 y[93] <= 0
 x_2nd_constraint_93_0: z[0] + x[93,0] - 6.237400770354274 y[93]
   >= -6.087529082123445
 x_3rd_constraint_93_0: z[0] + x[93,0] + 6.237400770354274 y[93]
   <= 6.387272458585103
 x_1st_constraint_94_0: x[94,0] - 6.237400770354274 y[94] <= 0
 x_2nd_constraint_94_0: z[0] + x[94,0] - 6.237400770354274 y[94]
   >= -6.100700385186034
 x_3rd_constraint_94_0: z[0] + x[94,0] + 6.237400770354274 y[94]
   <= 6.374101155522514
 x_1st_constraint_95_0: x[95,0] - 6.237400770354274 y[95] <= 0
 x_2nd_constraint_95_0: z[0] + x[95,0] - 6.237400770354274 y[95]
   >= -6.112379004212936
 x_3rd_constraint_95_0: z[0] + x[95,0] + 6.237400770354274 y[95]
   <= 6.362422536495612
 x_1st_constraint_96_0: x[96,0] - 6.237400770354274 y[96] <= 0
 x_2nd_constraint_96_0: z[0] + x[96,0] - 6.237400770354274 y[96]
   >= -6.119145014457464
 x_3rd_constraint_96_0: z[0] + x[96,0] + 6.237400770354274 y[96]
   <= 6.355656526251083
 x_1st_constraint_97_0: x[97,0] - 6.237400770354274 y[97] <= 0
 x_2nd_constraint_97_0: z[0] + x[97,0] - 6.237400770354274 y[97]
   >= -6.16422465765107
 x_3rd_constraint_97_0: z[0] + x[97,0] + 6.237400770354274 y[97]
   <= 6.310576883057477
 x_1st_constraint_98_0: x[98,0] - 6.237400770354274 y[98] <= 0
 x_2nd_constraint_98_0: z[0] + x[98,0] - 6.237400770354274 y[98]
   >= -6.214563677208801
 x_3rd_constraint_98_0: z[0] + x[98,0] + 6.237400770354274 y[98]
   <= 6.260237863499746
 x_1st_constraint_99_0: x[99,0] - 6.237400770354274 y[99] <= 0
 x_2nd_constraint_99_0: z[0] + x[99,0] - 6.237400770354274 y[99]
   >= -6.222119790252538
 x_3rd_constraint_99_0: z[0] + x[99,0] + 6.237400770354274 y[99]
   <= 6.252681750456009
 z_0: z[0] - 0.00652150622609091 x[0,0] - 0.00606862456393133 x[1,0]
   - 9.1226084555431962e-04 x[2,0] - 0.00625337189132941 x[3,0]
   - 0.0113239343648102 x[4,0] - 0.00304384860136773 x[5,0]
   - 0.00288363350191075 x[6,0] - 8.2709114236851375e-04 x[7,0]
   - 0.00953737487380387 x[8,0] - 0.0112366594647609 x[9,0]
   - 0.00188687090454302 x[10,0] - 0.00907776320090792 x[11,0]
   - 0.00548826160592589 x[12,0] - 0.0103797750073697 x[13,0]
   - 0.00288435615382243 x[14,0] - 0.00329399805551252 x[15,0]
   - 0.0103042429058763 x[16,0] - 0.0109534855108936 x[17,0]
   - 0.00565144859950497 x[18,0] - 0.00281233880885464 x[19,0]
   - 0.00954093020140032 x[20,0] - 0.00403192850895611 x[21,0]
   - 0.00755284021057131 x[22,0] - 0.00985225111755839 x[23,0]
   - 0.00439469491133369 x[24,0] - 5.4821010192047037e-04 x[25,0]
   - 0.00938305793314819 x[26,0] - 0.00344866727636841 x[27,0]
   - 0.0068983421910792 x[28,0] - 0.0122296437111421 x[29,0]
   - 0.00236675759121128 x[30,0] - 0.00733709118051568 x[31,0]
   - 0.00812868337857592 x[32,0] - 0.0071518802406435 x[33,0]
   - 0.00735135735475158 x[34,0] - 4.2738448759738001e-04 x[35,0]
   - 0.00956789686597977 x[36,0] - 0.00692731953478996 x[37,0]
   - 0.0101418554795103 x[38,0] - 0.00485271783688712 x[39,0]
   - 0.00946110529391182 x[40,0] - 0.00451959630527136 x[41,0]
   - 0.0101449819093846 x[42,0] - 0.00858506260486082 x[43,0]
   - 0.0107452540288362 x[44,0] - 0.0108684201308127 x[45,0]
   - 0.00420823314108634 x[46,0] - 0.0112362166400411 x[47,0]
   - 0.0079430920389339 x[48,0] - 6.1420230029475195e-04 x[49,0]
   - 0.00734028931789208 x[50,0] - 0.00263383480329331 x[51,0]
   - 0.00511478130025825 x[52,0] - 0.00166758345255096 x[53,0]
   - 0.00734187606377231 x[54,0] - 0.00333885788620047 x[55,0]
   - 0.0012885064233476 x[56,0] - 0.0103925092207638 x[57,0]
   - 0.00112491785945537 x[58,0] - 0.00912345208231317 x[59,0]
   - 3.981208572639738e-04 x[60,0] - 0.0109513532327703 x[61,0]
   - 0.0102008527225133 x[62,0] - 3.5989214722791872e-04 x[63,0]
   - 0.0118798415824902 x[64,0] - 0.00210018443686136 x[65,0]
   - 0.00725259817959532 x[66,0] - 0.0100934522767373 x[67,0]
   - 0.00549773283859333 x[68,0] - 0.00728692945571649 x[69,0]
   - 0.00798663764373952 x[70,0] - 0.00810481018200437 x[71,0]
   - 0.00705001424530091 x[72,0] - 0.00964958058236829 x[73,0]
   - 0.0101256007588993 x[74,0] - 0.00645060855885103 x[75,0]
   - 0.00641630687964004 x[76,0] - 0.0103388101290164 x[77,0]
   - 0.0122985789584637 x[78,0] - 0.00516898197428292 x[79,0]
   - 0.00778811948748788 x[80,0] - 0.00674007421230199 x[81,0]
   - 0.00719632074685954 x[82,0] - 0.0123059552202094 x[83,0]
   - 0.00812151837229862 x[84,0] - 0.0105700787821741 x[85,0]
   - 0.00590908615992105 x[86,0] - 0.0024641630497186 x[87,0]
   - 0.00613049276156111 x[88,0] - 0.00735084021960265 x[89,0]
   - 0.00271840467530623 x[90,0] - 0.00849199748634897 x[91,0]
   - 0.0105452513194387 x[92,0] - 0.00936263598984653 x[93,0]
   - 0.00551590903292923 x[94,0] - 0.00258133302468235 x[95,0]
   - 0.0110974785341506 x[96,0] - 5.6337925502990217e-04 x[97,0]
   - 0.00508553269658038 x[98,0] - 0.00579965100714824 x[99,0] <= 0
Bounds
Binaries
 y[0] y[1] y[2] y[3] y[4] y[5] y[6] y[7] y[8] y[9] y[10] y[11] y[12] y[13]
 y[14] y[15] y[16] y[17] y[18] y[19] y[20] y[21] y[22] y[23] y[24] y[25]
 y[26] y[27] y[28] y[29] y[30] y[31] y[32] y[33] y[34] y[35] y[36] y[37]
 y[38] y[39] y[40] y[41] y[42] y[43] y[44] y[45] y[46] y[47] y[48] y[49]
 y[50] y[51] y[52] y[53] y[54] y[55] y[56] y[57] y[58] y[59] y[60] y[61]
 y[62] y[63] y[64] y[65] y[66] y[67] y[68] y[69] y[70] y[71] y[72] y[73]
 y[74] y[75] y[76] y[77] y[78] y[79] y[80] y[81] y[82] y[83] y[84] y[85]
 y[86] y[87] y[88] y[89] y[90] y[91] y[92] y[93] y[94] y[95] y[96] y[97]
 y[98] y[99]
End
